3
2 1 -1 8
-3 -1 2 -11
-2 1 2 -3

2
1 1 2
2 2 5

3
1 1 1 3
2 -1 1 0
3 1 -1 2

4
1 2 3 4 10
2 3 4 5 14
3 4 5 6 18
4 5 6 7 22

3
0 2 3 7
1 -1 2 4
3 1 -1 2

3
1.5 2.2 -3.1 4.8
2.7 -1.4 5.5 3.2
-4.1 2.8 1.9 -6.7

3
1 0 0 5
0 1 0 -3
0 0 1 2

3
0 0 0 0
0 0 0 0
0 0 0 0

3
1 2 3 4
2 4 6 8
1 1 1 5

3
1 . 3 4
0 0 0 0
0 0 0 0

3
1 2 a 4
0 0 0 5
0 0 0 0

3
1 2 3 4
5 # 7 8
9 10 11 12

3
1 ++ 3 4
0 0 0 0
0 0 0 0

3
1 2 5..2 4
0 0 0 0
0 0 0 0

-3

100

3
1 2
4 5 6
7 8 9 10

2
1e309 2 3
4 5 6

3
1 2 3 4
5 6 7 8
9 10 11 12